p cnf 289 1
289 0
w 1 0.132187
w 2 1 0.857256
w 2 -1 0.293089
w 3 2 0.488215
w 3 -2 0.337067
w 4 3 1
w 4 -3 0
w 5 4 0.226835
w 5 -4 0.314554
w 6 5 0
w 6 -5 1
w 7 6 0.989386
w 7 -6 0.709041
w 8 7 0.25213
w 8 -7 0.185044
w 9 8 1
w 9 -8 0
w 10 9 0
w 10 -9 1
w 11 10 0
w 11 -10 1
w 12 11 1
w 12 -11 0
w 13 12 0
w 13 -12 1
w 14 13 1
w 14 -13 0
w 15 14 0.206853
w 15 -14 0.572445
w 16 15 0
w 16 -15 1
w 17 16 0.550996
w 17 -16 0.445356
w 18 1 0.77783
w 18 -1 0.75991
w 19 18 2 0
w 19 18 -2 0
w 19 -18 2 0
w 19 -18 -2 1
w 20 19 3 1
w 20 19 -3 1
w 20 -19 3 1
w 20 -19 -3 0
w 21 20 4 1
w 21 20 -4 0
w 21 -20 4 0
w 21 -20 -4 1
w 22 21 5 0
w 22 21 -5 1
w 22 -21 5 1
w 22 -21 -5 1
w 23 22 6 0
w 23 22 -6 0
w 23 -22 6 1
w 23 -22 -6 1
w 24 23 7 1
w 24 23 -7 0
w 24 -23 7 1
w 24 -23 -7 1
w 25 24 8 0
w 25 24 -8 1
w 25 -24 8 1
w 25 -24 -8 0
w 26 25 9 1
w 26 25 -9 1
w 26 -25 9 0
w 26 -25 -9 1
w 27 26 10 0.943308
w 27 26 -10 0.970732
w 27 -26 10 0.652247
w 27 -26 -10 0.593673
w 28 27 11 0.832542
w 28 27 -11 0.226841
w 28 -27 11 0.532511
w 28 -27 -11 0.292193
w 29 28 12 0.695051
w 29 28 -12 0.324289
w 29 -28 12 0.390486
w 29 -28 -12 0.55266
w 30 29 13 0
w 30 29 -13 1
w 30 -29 13 0
w 30 -29 -13 1
w 31 30 14 0.157593
w 31 30 -14 0.727043
w 31 -30 14 0.469014
w 31 -30 -14 0.439932
w 32 31 15 0
w 32 31 -15 1
w 32 -31 15 0
w 32 -31 -15 0
w 33 32 16 0.0720128
w 33 32 -16 0.434675
w 33 -32 16 0.233135
w 33 -32 -16 0.665685
w 34 33 17 1
w 34 33 -17 1
w 34 -33 17 0
w 34 -33 -17 0
w 35 18 1
w 35 -18 0
w 36 35 19 0.875448
w 36 35 -19 0.79172
w 36 -35 19 0.948056
w 36 -35 -19 0.614979
w 37 36 20 0.0440998
w 37 36 -20 0.481386
w 37 -36 20 0.565842
w 37 -36 -20 0.201693
w 38 37 21 0
w 38 37 -21 1
w 38 -37 21 1
w 38 -37 -21 1
w 39 38 22 1
w 39 38 -22 1
w 39 -38 22 0
w 39 -38 -22 1
w 40 39 23 0.0146991
w 40 39 -23 0.373601
w 40 -39 23 0.746932
w 40 -39 -23 0.0803761
w 41 40 24 1
w 41 40 -24 1
w 41 -40 24 1
w 41 -40 -24 0
w 42 41 25 0
w 42 41 -25 1
w 42 -41 25 0
w 42 -41 -25 1
w 43 42 26 0.112562
w 43 42 -26 0.722904
w 43 -42 26 0.534907
w 43 -42 -26 0.314255
w 44 43 27 0.569763
w 44 43 -27 0.955879
w 44 -43 27 0.170242
w 44 -43 -27 0.0769614
w 45 44 28 0.370919
w 45 44 -28 0.712865
w 45 -44 28 0.0934513
w 45 -44 -28 0.152483
w 46 45 29 0
w 46 45 -29 1
w 46 -45 29 1
w 46 -45 -29 1
w 47 46 30 0
w 47 46 -30 1
w 47 -46 30 0
w 47 -46 -30 1
w 48 47 31 0
w 48 47 -31 1
w 48 -47 31 1
w 48 -47 -31 0
w 49 48 32 0.687541
w 49 48 -32 0.987234
w 49 -48 32 0.402562
w 49 -48 -32 0.222447
w 50 49 33 1
w 50 49 -33 1
w 50 -49 33 1
w 50 -49 -33 0
w 51 50 34 0.0500605
w 51 50 -34 0.875056
w 51 -50 34 0.582036
w 51 -50 -34 0.143512
w 52 35 0
w 52 -35 1
w 53 52 36 0.19472
w 53 52 -36 0.797198
w 53 -52 36 0.548213
w 53 -52 -36 0.442278
w 54 53 37 0.41497
w 54 53 -37 0.128082
w 54 -53 37 0.669309
w 54 -53 -37 0.811726
w 55 54 38 0.107449
w 55 54 -38 0.530203
w 55 -54 38 0.808963
w 55 -54 -38 0.787107
w 56 55 39 0
w 56 55 -39 1
w 56 -55 39 0
w 56 -55 -39 0
w 57 56 40 0.232401
w 57 56 -40 0.355053
w 57 -56 40 0.0277017
w 57 -56 -40 0.101573
w 58 57 41 1
w 58 57 -41 0
w 58 -57 41 0
w 58 -57 -41 1
w 59 58 42 0.521022
w 59 58 -42 0.125015
w 59 -58 42 0.483624
w 59 -58 -42 0.0692352
w 60 59 43 0.341332
w 60 59 -43 0.484205
w 60 -59 43 0.695374
w 60 -59 -43 0.0106413
w 61 60 44 0
w 61 60 -44 1
w 61 -60 44 0
w 61 -60 -44 0
w 62 61 45 0.0438773
w 62 61 -45 0.234826
w 62 -61 45 0.0948672
w 62 -61 -45 0.484068
w 63 62 46 0
w 63 62 -46 1
w 63 -62 46 0
w 63 -62 -46 0
w 64 63 47 0.0926782
w 64 63 -47 0.548891
w 64 -63 47 0.501651
w 64 -63 -47 0.641304
w 65 64 48 0
w 65 64 -48 1
w 65 -64 48 0
w 65 -64 -48 0
w 66 65 49 1
w 66 65 -49 1
w 66 -65 49 0
w 66 -65 -49 1
w 67 66 50 1
w 67 66 -50 1
w 67 -66 50 0
w 67 -66 -50 1
w 68 67 51 0.169989
w 68 67 -51 0.141829
w 68 -67 51 0.365776
w 68 -67 -51 0.502501
w 69 52 0.0822453
w 69 -52 0.190066
w 70 69 53 0
w 70 69 -53 1
w 70 -69 53 1
w 70 -69 -53 1
w 71 70 54 0.434471
w 71 70 -54 0.590014
w 71 -70 54 0.0863729
w 71 -70 -54 0.0386725
w 72 71 55 1
w 72 71 -55 0
w 72 -71 55 1
w 72 -71 -55 0
w 73 72 56 0
w 73 72 -56 1
w 73 -72 56 0
w 73 -72 -56 1
w 74 73 57 0.508733
w 74 73 -57 0.487147
w 74 -73 57 0.764935
w 74 -73 -57 0.678723
w 75 74 58 0.130711
w 75 74 -58 0.181224
w 75 -74 58 0.389236
w 75 -74 -58 0.212956
w 76 75 59 1
w 76 75 -59 0
w 76 -75 59 1
w 76 -75 -59 0
w 77 76 60 0.578081
w 77 76 -60 0.185385
w 77 -76 60 0.105196
w 77 -76 -60 0.664454
w 78 77 61 1
w 78 77 -61 0
w 78 -77 61 1
w 78 -77 -61 0
w 79 78 62 0
w 79 78 -62 0
w 79 -78 62 1
w 79 -78 -62 0
w 80 79 63 0.593564
w 80 79 -63 0.86741
w 80 -79 63 0.709645
w 80 -79 -63 0.272287
w 81 80 64 1
w 81 80 -64 1
w 81 -80 64 0
w 81 -80 -64 0
w 82 81 65 0.68125
w 82 81 -65 0.166556
w 82 -81 65 0.478833
w 82 -81 -65 0.432164
w 83 82 66 0.0569142
w 83 82 -66 0.61755
w 83 -82 66 0.786933
w 83 -82 -66 0.721368
w 84 83 67 0.153843
w 84 83 -67 0.703755
w 84 -83 67 0.275832
w 84 -83 -67 0.7955
w 85 84 68 0.787092
w 85 84 -68 0.735578
w 85 -84 68 0.781325
w 85 -84 -68 0.871922
w 86 69 0
w 86 -69 1
w 87 86 70 1
w 87 86 -70 1
w 87 -86 70 0
w 87 -86 -70 0
w 88 87 71 1
w 88 87 -71 0
w 88 -87 71 1
w 88 -87 -71 0
w 89 88 72 1
w 89 88 -72 1
w 89 -88 72 1
w 89 -88 -72 0
w 90 89 73 0.0962207
w 90 89 -73 0.964578
w 90 -89 73 0.273198
w 90 -89 -73 0.937828
w 91 90 74 0
w 91 90 -74 1
w 91 -90 74 0
w 91 -90 -74 1
w 92 91 75 1
w 92 91 -75 0
w 92 -91 75 0
w 92 -91 -75 1
w 93 92 76 1
w 93 92 -76 0
w 93 -92 76 0
w 93 -92 -76 1
w 94 93 77 1
w 94 93 -77 0
w 94 -93 77 0
w 94 -93 -77 0
w 95 94 78 1
w 95 94 -78 1
w 95 -94 78 0
w 95 -94 -78 0
w 96 95 79 0.330045
w 96 95 -79 0.214884
w 96 -95 79 0.883353
w 96 -95 -79 0.603243
w 97 96 80 0
w 97 96 -80 0
w 97 -96 80 1
w 97 -96 -80 0
w 98 97 81 0
w 98 97 -81 1
w 98 -97 81 0
w 98 -97 -81 0
w 99 98 82 0.577956
w 99 98 -82 0.0791295
w 99 -98 82 0.599107
w 99 -98 -82 0.653889
w 100 99 83 0
w 100 99 -83 0
w 100 -99 83 1
w 100 -99 -83 0
w 101 100 84 0
w 101 100 -84 1
w 101 -100 84 0
w 101 -100 -84 0
w 102 101 85 0
w 102 101 -85 1
w 102 -101 85 0
w 102 -101 -85 0
w 103 86 1
w 103 -86 0
w 104 103 87 1
w 104 103 -87 0
w 104 -103 87 1
w 104 -103 -87 1
w 105 104 88 0.000386065
w 105 104 -88 0.116667
w 105 -104 88 0.487477
w 105 -104 -88 0.578343
w 106 105 89 1
w 106 105 -89 0
w 106 -105 89 0
w 106 -105 -89 1
w 107 106 90 0
w 107 106 -90 1
w 107 -106 90 1
w 107 -106 -90 0
w 108 107 91 0.340352
w 108 107 -91 0.604333
w 108 -107 91 0.283224
w 108 -107 -91 0.653013
w 109 108 92 0
w 109 108 -92 0
w 109 -108 92 0
w 109 -108 -92 1
w 110 109 93 0
w 110 109 -93 1
w 110 -109 93 0
w 110 -109 -93 1
w 111 110 94 0.366317
w 111 110 -94 0.660253
w 111 -110 94 0.0156616
w 111 -110 -94 0.853794
w 112 111 95 0
w 112 111 -95 0
w 112 -111 95 0
w 112 -111 -95 1
w 113 112 96 0.624161
w 113 112 -96 0.118612
w 113 -112 96 0.903717
w 113 -112 -96 0.981897
w 114 113 97 0
w 114 113 -97 1
w 114 -113 97 0
w 114 -113 -97 0
w 115 114 98 0.146496
w 115 114 -98 0.63674
w 115 -114 98 0.544179
w 115 -114 -98 0.652307
w 116 115 99 0.609196
w 116 115 -99 0.551585
w 116 -115 99 0.641533
w 116 -115 -99 0.447307
w 117 116 100 1
w 117 116 -100 1
w 117 -116 100 0
w 117 -116 -100 0
w 118 117 101 0.110299
w 118 117 -101 0.767648
w 118 -117 101 0.607795
w 118 -117 -101 0.581125
w 119 118 102 1
w 119 118 -102 0
w 119 -118 102 1
w 119 -118 -102 0
w 120 103 0
w 120 -103 1
w 121 120 104 0.509433
w 121 120 -104 0.332099
w 121 -120 104 0.870335
w 121 -120 -104 0.484695
w 122 121 105 0
w 122 121 -105 1
w 122 -121 105 1
w 122 -121 -105 1
w 123 122 106 0.677278
w 123 122 -106 0.0853767
w 123 -122 106 0.893938
w 123 -122 -106 0.217806
w 124 123 107 0.765642
w 124 123 -107 0.773995
w 124 -123 107 0.566418
w 124 -123 -107 0.87594
w 125 124 108 0.174214
w 125 124 -108 0.457065
w 125 -124 108 0.0239043
w 125 -124 -108 0.323953
w 126 125 109 0.624777
w 126 125 -109 0.377409
w 126 -125 109 0.849534
w 126 -125 -109 0.289097
w 127 126 110 1
w 127 126 -110 1
w 127 -126 110 0
w 127 -126 -110 0
w 128 127 111 1
w 128 127 -111 1
w 128 -127 111 1
w 128 -127 -111 0
w 129 128 112 0.913181
w 129 128 -112 0.288126
w 129 -128 112 0.595982
w 129 -128 -112 0.807119
w 130 129 113 0.494983
w 130 129 -113 0.572761
w 130 -129 113 0.279927
w 130 -129 -113 0.0614008
w 131 130 114 0
w 131 130 -114 0
w 131 -130 114 0
w 131 -130 -114 1
w 132 131 115 0.568118
w 132 131 -115 0.470252
w 132 -131 115 0.936977
w 132 -131 -115 0.417652
w 133 132 116 0.13467
w 133 132 -116 0.776619
w 133 -132 116 0.380545
w 133 -132 -116 0.202698
w 134 133 117 0.480336
w 134 133 -117 0.777802
w 134 -133 117 0.492817
w 134 -133 -117 0.71103
w 135 134 118 0
w 135 134 -118 0
w 135 -134 118 0
w 135 -134 -118 1
w 136 135 119 1
w 136 135 -119 1
w 136 -135 119 0
w 136 -135 -119 1
w 137 120 1
w 137 -120 0
w 138 137 121 0
w 138 137 -121 0
w 138 -137 121 1
w 138 -137 -121 1
w 139 138 122 0.599932
w 139 138 -122 0.887946
w 139 -138 122 0.344328
w 139 -138 -122 0.359281
w 140 139 123 0
w 140 139 -123 0
w 140 -139 123 0
w 140 -139 -123 1
w 141 140 124 1
w 141 140 -124 1
w 141 -140 124 0
w 141 -140 -124 1
w 142 141 125 0.0685418
w 142 141 -125 0.836871
w 142 -141 125 0.986733
w 142 -141 -125 0.251249
w 143 142 126 0.990824
w 143 142 -126 0.713884
w 143 -142 126 0.0870454
w 143 -142 -126 0.443616
w 144 143 127 0.478447
w 144 143 -127 0.802174
w 144 -143 127 0.127769
w 144 -143 -127 0.429417
w 145 144 128 0.727701
w 145 144 -128 0.317363
w 145 -144 128 0.0731781
w 145 -144 -128 0.0869824
w 146 145 129 0
w 146 145 -129 0
w 146 -145 129 1
w 146 -145 -129 0
w 147 146 130 1
w 147 146 -130 1
w 147 -146 130 0
w 147 -146 -130 0
w 148 147 131 1
w 148 147 -131 0
w 148 -147 131 1
w 148 -147 -131 0
w 149 148 132 0
w 149 148 -132 1
w 149 -148 132 1
w 149 -148 -132 1
w 150 149 133 0.991941
w 150 149 -133 0.740487
w 150 -149 133 0.756912
w 150 -149 -133 0.11971
w 151 150 134 0
w 151 150 -134 1
w 151 -150 134 0
w 151 -150 -134 0
w 152 151 135 0.827245
w 152 151 -135 0.753065
w 152 -151 135 0.761202
w 152 -151 -135 0.392538
w 153 152 136 0.808172
w 153 152 -136 0.960948
w 153 -152 136 0.857818
w 153 -152 -136 0.786334
w 154 137 0.264683
w 154 -137 0.319899
w 155 154 138 0.508419
w 155 154 -138 0.840197
w 155 -154 138 0.229809
w 155 -154 -138 0.683413
w 156 155 139 1
w 156 155 -139 0
w 156 -155 139 0
w 156 -155 -139 1
w 157 156 140 0.0629684
w 157 156 -140 0.335311
w 157 -156 140 0.855843
w 157 -156 -140 0.54873
w 158 157 141 1
w 158 157 -141 1
w 158 -157 141 0
w 158 -157 -141 0
w 159 158 142 0.878319
w 159 158 -142 0.562892
w 159 -158 142 0.549154
w 159 -158 -142 0.686492
w 160 159 143 0.406972
w 160 159 -143 0.472826
w 160 -159 143 0.444965
w 160 -159 -143 0.671655
w 161 160 144 0.394807
w 161 160 -144 0.180074
w 161 -160 144 0.632923
w 161 -160 -144 0.624615
w 162 161 145 0.984242
w 162 161 -145 0.848275
w 162 -161 145 0.80894
w 162 -161 -145 0.290299
w 163 162 146 0
w 163 162 -146 0
w 163 -162 146 1
w 163 -162 -146 1
w 164 163 147 0.58191
w 164 163 -147 0.693832
w 164 -163 147 0.00966693
w 164 -163 -147 0.699027
w 165 164 148 0.870402
w 165 164 -148 0.577346
w 165 -164 148 0.427078
w 165 -164 -148 0.419556
w 166 165 149 1
w 166 165 -149 0
w 166 -165 149 1
w 166 -165 -149 0
w 167 166 150 1
w 167 166 -150 1
w 167 -166 150 0
w 167 -166 -150 1
w 168 167 151 0
w 168 167 -151 1
w 168 -167 151 1
w 168 -167 -151 1
w 169 168 152 1
w 169 168 -152 1
w 169 -168 152 1
w 169 -168 -152 0
w 170 169 153 1
w 170 169 -153 1
w 170 -169 153 0
w 170 -169 -153 1
w 171 154 1
w 171 -154 0
w 172 171 155 0.584928
w 172 171 -155 0.181381
w 172 -171 155 0.991741
w 172 -171 -155 0.848766
w 173 172 156 0
w 173 172 -156 0
w 173 -172 156 1
w 173 -172 -156 0
w 174 173 157 0
w 174 173 -157 0
w 174 -173 157 0
w 174 -173 -157 1
w 175 174 158 0.423684
w 175 174 -158 0.997761
w 175 -174 158 0.887135
w 175 -174 -158 0.860536
w 176 175 159 1
w 176 175 -159 1
w 176 -175 159 1
w 176 -175 -159 0
w 177 176 160 0
w 177 176 -160 1
w 177 -176 160 0
w 177 -176 -160 0
w 178 177 161 0.952929
w 178 177 -161 0.754785
w 178 -177 161 0.60848
w 178 -177 -161 0.801695
w 179 178 162 0.426749
w 179 178 -162 0.387125
w 179 -178 162 0.415269
w 179 -178 -162 0.743201
w 180 179 163 0.734144
w 180 179 -163 0.737909
w 180 -179 163 0.779074
w 180 -179 -163 0.468323
w 181 180 164 1
w 181 180 -164 0
w 181 -180 164 1
w 181 -180 -164 1
w 182 181 165 0.894195
w 182 181 -165 0.713949
w 182 -181 165 0.843166
w 182 -181 -165 0.823178
w 183 182 166 0
w 183 182 -166 0
w 183 -182 166 1
w 183 -182 -166 0
w 184 183 167 0
w 184 183 -167 1
w 184 -183 167 0
w 184 -183 -167 0
w 185 184 168 0
w 185 184 -168 1
w 185 -184 168 1
w 185 -184 -168 0
w 186 185 169 1
w 186 185 -169 1
w 186 -185 169 0
w 186 -185 -169 1
w 187 186 170 0
w 187 186 -170 0
w 187 -186 170 1
w 187 -186 -170 1
w 188 171 0
w 188 -171 1
w 189 188 172 0.974354
w 189 188 -172 0.575843
w 189 -188 172 0.38758
w 189 -188 -172 0.0310737
w 190 189 173 0.0298598
w 190 189 -173 0.132347
w 190 -189 173 0.351011
w 190 -189 -173 0.245543
w 191 190 174 0.875525
w 191 190 -174 0.216012
w 191 -190 174 0.17685
w 191 -190 -174 0.201733
w 192 191 175 1
w 192 191 -175 1
w 192 -191 175 0
w 192 -191 -175 0
w 193 192 176 0
w 193 192 -176 1
w 193 -192 176 1
w 193 -192 -176 1
w 194 193 177 1
w 194 193 -177 1
w 194 -193 177 0
w 194 -193 -177 0
w 195 194 178 0.404202
w 195 194 -178 0.556563
w 195 -194 178 0.0785397
w 195 -194 -178 0.791783
w 196 195 179 0.857967
w 196 195 -179 0.821643
w 196 -195 179 0.719984
w 196 -195 -179 0.208978
w 197 196 180 1
w 197 196 -180 1
w 197 -196 180 0
w 197 -196 -180 1
w 198 197 181 0
w 198 197 -181 0
w 198 -197 181 1
w 198 -197 -181 1
w 199 198 182 1
w 199 198 -182 1
w 199 -198 182 0
w 199 -198 -182 1
w 200 199 183 0.934287
w 200 199 -183 0.778147
w 200 -199 183 0.655172
w 200 -199 -183 0.774087
w 201 200 184 1
w 201 200 -184 0
w 201 -200 184 1
w 201 -200 -184 1
w 202 201 185 0.504557
w 202 201 -185 0.0943755
w 202 -201 185 0.791715
w 202 -201 -185 0.224541
w 203 202 186 0
w 203 202 -186 1
w 203 -202 186 1
w 203 -202 -186 1
w 204 203 187 0.49886
w 204 203 -187 0.219359
w 204 -203 187 0.875396
w 204 -203 -187 0.202011
w 205 188 1
w 205 -188 0
w 206 205 189 0
w 206 205 -189 0
w 206 -205 189 0
w 206 -205 -189 1
w 207 206 190 0
w 207 206 -190 0
w 207 -206 190 0
w 207 -206 -190 1
w 208 207 191 0.718807
w 208 207 -191 0.193121
w 208 -207 191 0.944603
w 208 -207 -191 0.223364
w 209 208 192 1
w 209 208 -192 0
w 209 -208 192 0
w 209 -208 -192 0
w 210 209 193 0
w 210 209 -193 1
w 210 -209 193 1
w 210 -209 -193 1
w 211 210 194 0
w 211 210 -194 1
w 211 -210 194 0
w 211 -210 -194 0
w 212 211 195 0.696705
w 212 211 -195 0.415265
w 212 -211 195 0.398621
w 212 -211 -195 0.840376
w 213 212 196 0
w 213 212 -196 1
w 213 -212 196 0
w 213 -212 -196 0
w 214 213 197 0.208192
w 214 213 -197 0.360845
w 214 -213 197 0.789051
w 214 -213 -197 0.152795
w 215 214 198 0.0765471
w 215 214 -198 0.889113
w 215 -214 198 0.0321147
w 215 -214 -198 0.667397
w 216 215 199 0
w 216 215 -199 1
w 216 -215 199 0
w 216 -215 -199 0
w 217 216 200 0
w 217 216 -200 0
w 217 -216 200 0
w 217 -216 -200 1
w 218 217 201 0.592714
w 218 217 -201 0.806656
w 218 -217 201 0.960956
w 218 -217 -201 0.43309
w 219 218 202 0
w 219 218 -202 0
w 219 -218 202 1
w 219 -218 -202 0
w 220 219 203 0.685928
w 220 219 -203 0.803991
w 220 -219 203 0.457289
w 220 -219 -203 0.838722
w 221 220 204 0
w 221 220 -204 0
w 221 -220 204 0
w 221 -220 -204 1
w 222 205 0
w 222 -205 1
w 223 222 206 0.433812
w 223 222 -206 0.754989
w 223 -222 206 0.14624
w 223 -222 -206 0.891634
w 224 223 207 0.973338
w 224 223 -207 0.787643
w 224 -223 207 0.210375
w 224 -223 -207 0.535673
w 225 224 208 1
w 225 224 -208 0
w 225 -224 208 0
w 225 -224 -208 0
w 226 225 209 0
w 226 225 -209 1
w 226 -225 209 0
w 226 -225 -209 1
w 227 226 210 1
w 227 226 -210 1
w 227 -226 210 1
w 227 -226 -210 0
w 228 227 211 0.991327
w 228 227 -211 0.35339
w 228 -227 211 0.746352
w 228 -227 -211 0.203493
w 229 228 212 0
w 229 228 -212 0
w 229 -228 212 1
w 229 -228 -212 1
w 230 229 213 0.622581
w 230 229 -213 0.713267
w 230 -229 213 0.316583
w 230 -229 -213 0.832956
w 231 230 214 0
w 231 230 -214 1
w 231 -230 214 0
w 231 -230 -214 0
w 232 231 215 0
w 232 231 -215 1
w 232 -231 215 1
w 232 -231 -215 1
w 233 232 216 0.274704
w 233 232 -216 0.32906
w 233 -232 216 0.96142
w 233 -232 -216 0.538196
w 234 233 217 1
w 234 233 -217 1
w 234 -233 217 0
w 234 -233 -217 0
w 235 234 218 0.664133
w 235 234 -218 0.846581
w 235 -234 218 0.370321
w 235 -234 -218 0.467731
w 236 235 219 0.899261
w 236 235 -219 0.0903124
w 236 -235 219 0.299777
w 236 -235 -219 0.215844
w 237 236 220 0.548716
w 237 236 -220 0.912785
w 237 -236 220 0.773255
w 237 -236 -220 0.294285
w 238 237 221 1
w 238 237 -221 1
w 238 -237 221 0
w 238 -237 -221 1
w 239 222 0
w 239 -222 1
w 240 239 223 1
w 240 239 -223 0
w 240 -239 223 0
w 240 -239 -223 1
w 241 240 224 1
w 241 240 -224 0
w 241 -240 224 0
w 241 -240 -224 1
w 242 241 225 0.336887
w 242 241 -225 0.180042
w 242 -241 225 0.460359
w 242 -241 -225 0.923397
w 243 242 226 0
w 243 242 -226 1
w 243 -242 226 1
w 243 -242 -226 1
w 244 243 227 0
w 244 243 -227 1
w 244 -243 227 1
w 244 -243 -227 0
w 245 244 228 0
w 245 244 -228 1
w 245 -244 228 1
w 245 -244 -228 0
w 246 245 229 0.976376
w 246 245 -229 0.950752
w 246 -245 229 0.421992
w 246 -245 -229 0.689346
w 247 246 230 0
w 247 246 -230 1
w 247 -246 230 0
w 247 -246 -230 1
w 248 247 231 1
w 248 247 -231 1
w 248 -247 231 1
w 248 -247 -231 0
w 249 248 232 0.0214972
w 249 248 -232 0.161931
w 249 -248 232 0.862909
w 249 -248 -232 0.495436
w 250 249 233 0.0708407
w 250 249 -233 0.742631
w 250 -249 233 0.999996
w 250 -249 -233 0.701946
w 251 250 234 0.40376
w 251 250 -234 0.152369
w 251 -250 234 0.739996
w 251 -250 -234 0.9293
w 252 251 235 0
w 252 251 -235 0
w 252 -251 235 1
w 252 -251 -235 1
w 253 252 236 0.511164
w 253 252 -236 0.535494
w 253 -252 236 0.612862
w 253 -252 -236 0.189636
w 254 253 237 0.623329
w 254 253 -237 0.204996
w 254 -253 237 0.33237
w 254 -253 -237 0.0941554
w 255 254 238 0
w 255 254 -238 1
w 255 -254 238 0
w 255 -254 -238 1
w 256 239 0.239506
w 256 -239 0.833881
w 257 256 240 0
w 257 256 -240 0
w 257 -256 240 1
w 257 -256 -240 1
w 258 257 241 0.967887
w 258 257 -241 0.572562
w 258 -257 241 0.0604414
w 258 -257 -241 0.582693
w 259 258 242 0
w 259 258 -242 1
w 259 -258 242 1
w 259 -258 -242 1
w 260 259 243 0.0842394
w 260 259 -243 0.998895
w 260 -259 243 0.309452
w 260 -259 -243 0.289236
w 261 260 244 1
w 261 260 -244 0
w 261 -260 244 0
w 261 -260 -244 0
w 262 261 245 0.130349
w 262 261 -245 0.978179
w 262 -261 245 0.828319
w 262 -261 -245 0.484069
w 263 262 246 0
w 263 262 -246 1
w 263 -262 246 0
w 263 -262 -246 1
w 264 263 247 0.433505
w 264 263 -247 0.112783
w 264 -263 247 0.26254
w 264 -263 -247 0.911743
w 265 264 248 0
w 265 264 -248 0
w 265 -264 248 1
w 265 -264 -248 0
w 266 265 249 0.475064
w 266 265 -249 0.0359089
w 266 -265 249 0.980578
w 266 -265 -249 0.7643
w 267 266 250 0
w 267 266 -250 1
w 267 -266 250 1
w 267 -266 -250 0
w 268 267 251 0.593008
w 268 267 -251 0.0337938
w 268 -267 251 0.91414
w 268 -267 -251 0.421327
w 269 268 252 0.131821
w 269 268 -252 0.785472
w 269 -268 252 0.229823
w 269 -268 -252 0.992763
w 270 269 253 0.90967
w 270 269 -253 0.426268
w 270 -269 253 0.950597
w 270 -269 -253 0.172211
w 271 270 254 1
w 271 270 -254 0
w 271 -270 254 1
w 271 -270 -254 0
w 272 271 255 0
w 272 271 -255 0
w 272 -271 255 1
w 272 -271 -255 0
w 273 256 0
w 273 -256 1
w 274 273 257 0
w 274 273 -257 1
w 274 -273 257 1
w 274 -273 -257 0
w 275 274 258 0.296144
w 275 274 -258 0.1244
w 275 -274 258 0.107243
w 275 -274 -258 0.814006
w 276 275 259 1
w 276 275 -259 0
w 276 -275 259 0
w 276 -275 -259 1
w 277 276 260 0.675251
w 277 276 -260 0.681127
w 277 -276 260 0.12571
w 277 -276 -260 0.0132628
w 278 277 261 1
w 278 277 -261 0
w 278 -277 261 1
w 278 -277 -261 1
w 279 278 262 1
w 279 278 -262 0
w 279 -278 262 0
w 279 -278 -262 1
w 280 279 263 0.664045
w 280 279 -263 0.629607
w 280 -279 263 0.985617
w 280 -279 -263 0.926395
w 281 280 264 0.671534
w 281 280 -264 0.222539
w 281 -280 264 0.964267
w 281 -280 -264 0.778777
w 282 281 265 0
w 282 281 -265 1
w 282 -281 265 1
w 282 -281 -265 1
w 283 282 266 1
w 283 282 -266 1
w 283 -282 266 0
w 283 -282 -266 1
w 284 283 267 0
w 284 283 -267 0
w 284 -283 267 1
w 284 -283 -267 0
w 285 284 268 0.454987
w 285 284 -268 0.00911156
w 285 -284 268 0.129823
w 285 -284 -268 0.810296
w 286 285 269 0.793867
w 286 285 -269 0.439904
w 286 -285 269 0.887438
w 286 -285 -269 0.720262
w 287 286 270 1
w 287 286 -270 1
w 287 -286 270 0
w 287 -286 -270 1
w 288 287 271 0.464524
w 288 287 -271 0.00924104
w 288 -287 271 0.0597189
w 288 -287 -271 0.933994
w 289 288 272 1
w 289 288 -272 0
w 289 -288 272 1
w 289 -288 -272 1